solving instance mcnd nodes c25_100_10_V_L_5 3 6 log
presolving:
(round 1, fast)       127 del vars, 149 del conss, 0 add conss, 160 chg bounds, 0 chg sides, 12 chg coeffs, 0 upgd conss, 0 impls, 0 clqs
(round 2, fast)       127 del vars, 149 del conss, 0 add conss, 160 chg bounds, 0 chg sides, 139 chg coeffs, 0 upgd conss, 0 impls, 0 clqs
(round 3, exhaustive) 127 del vars, 354 del conss, 0 add conss, 160 chg bounds, 107 chg sides, 139 chg coeffs, 0 upgd conss, 0 impls, 0 clqs
(round 4, exhaustive) 127 del vars, 354 del conss, 0 add conss, 160 chg bounds, 107 chg sides, 139 chg coeffs, 873 upgd conss, 0 impls, 0 clqs
   (0.0s) probing: 51/98 (52.0%) - 0 fixings, 0 aggregations, 0 implications, 0 bound changes
   (0.0s) probing aborted: 50/50 successive totally useless probings
   (0.0s) symmetry computation started: requiring (bin +, int +, cont +), (fixed: bin -, int -, cont -)
   (0.0s) no symmetry present (symcode time: 0.00)
presolving (5 rounds: 5 fast, 3 medium, 3 exhaustive):
 127 deleted vars, 354 deleted constraints, 0 added constraints, 160 tightened bounds, 0 added holes, 107 changed sides, 0 changed coefficients
 873 implications, 0 cliques
presolved problem has 1148 variables (98 bin, 0 int, 0 impl, 1050 cont) and 1271 constraints
    873 constraints of type <varbound>
    373 constraints of type <linear>
     25 constraints of type <nonlinear>
Presolving Time: 0.03

 time | node  | left  |LP iter|LP it/n|mem/heur|mdpt |vars |cons |rows |cuts |sepa|confs|strbr|  dualbound   | primalbound  |  gap   | compl. 
t 0.1s|     1 |     0 |  1266 |     - |  trysol|   0 |1198 |1271 |1296 |   0 |  0 |   0 |   0 | 3.178393e+02 | 7.790812e+03 |2351.18%| unknown
  0.2s|     1 |     0 |  2403 |     - |    14M |   0 |1198 |1271 |1296 |   0 |  0 |   0 |   0 | 1.800614e+03 | 7.790812e+03 | 332.68%| unknown
t 0.2s|     1 |     0 |  2613 |     - |  trysol|   0 |1198 |1271 |1296 |   0 |  0 |   0 |   0 | 1.800614e+03 | 2.133155e+03 |  18.47%| unknown
  0.2s|     1 |     0 |  2655 |     - |    14M |   0 |1198 |1271 |1297 |   1 |  1 |   0 |   0 | 1.802811e+03 | 2.133155e+03 |  18.32%| unknown
  0.2s|     1 |     0 |  2655 |     - |    14M |   0 |1198 |1271 |1297 |   1 |  1 |   0 |   0 | 1.802811e+03 | 2.133155e+03 |  18.32%| unknown
r 0.2s|     1 |     0 |  2655 |     - |simplero|   0 |1198 |1271 |1297 |   1 |  1 |   0 |   0 | 1.802811e+03 | 2.133155e+03 |  18.32%| unknown
  0.2s|     1 |     0 |  2703 |     - |    14M |   0 |1198 |1271 |1298 |   2 |  2 |   0 |   0 | 1.804811e+03 | 2.133155e+03 |  18.19%| unknown
  0.2s|     1 |     0 |  2839 |     - |    15M |   0 |1198 |1271 |1299 |   3 |  3 |   0 |   0 | 1.807311e+03 | 2.133155e+03 |  18.03%| unknown
  0.2s|     1 |     0 |  2845 |     - |    15M |   0 |1198 |1271 |1300 |   4 |  4 |   0 |   0 | 1.807698e+03 | 2.133155e+03 |  18.00%| unknown
  0.4s|     1 |     0 |  5377 |     - |    15M |   0 |1198 |1271 |1300 |   4 |  5 |   0 |   0 | 1.871050e+03 | 2.133155e+03 |  14.01%| unknown
  0.4s|     1 |     0 |  5628 |     - |    15M |   0 |1198 |1271 |1316 |  20 |  6 |   0 |   0 | 1.944565e+03 | 2.133155e+03 |   9.70%| unknown
d 0.8s|     1 |     0 |  5628 |     - |    mpec|   0 |1198 |1271 |1316 |  20 |  7 |   0 |   0 | 1.944565e+03 | 2.047461e+03 |   5.29%| unknown
  0.8s|     1 |     0 |  5628 |     - |    17M |   0 |1198 |1271 |1316 |  20 |  7 |   0 |   0 | 1.944565e+03 | 2.047461e+03 |   5.29%| unknown
  0.8s|     1 |     0 |  5628 |     - |    17M |   0 |1198 |1271 |1316 |  20 |  8 |   0 |   0 | 1.944565e+03 | 2.047461e+03 |   5.29%| unknown
  0.8s|     1 |     0 |  5628 |     - |    17M |   0 |1198 |1271 |1316 |  20 |  9 |   0 |   0 | 1.944565e+03 | 2.047461e+03 |   5.29%| unknown
 time | node  | left  |LP iter|LP it/n|mem/heur|mdpt |vars |cons |rows |cuts |sepa|confs|strbr|  dualbound   | primalbound  |  gap   | compl. 
  0.8s|     1 |     0 |  5628 |     - |    17M |   0 |1198 |1271 |1316 |  20 | 10 |   0 |   0 | 1.944565e+03 | 2.047461e+03 |   5.29%| unknown
  0.8s|     1 |     2 |  5628 |     - |    17M |   0 |1198 |1271 |1316 |  20 | 11 |   0 |   0 | 1.944565e+03 | 2.047461e+03 |   5.29%| unknown
d 1.7s|    13 |    12 |  8205 | 484.8 |nlpdivin|  10 |1198 |1272 |1308 |  37 |  6 |   2 |  10 | 1.944565e+03 | 2.047461e+03 |   5.29%| unknown
  3.9s|   100 |    23 | 16155 | 139.1 |    19M |  23 |1198 |1272 |1310 | 118 |  6 |   2 |  50 | 2.036585e+03 | 2.047461e+03 |   0.53%|  99.25%
  5.6s|   200 |    27 | 22625 | 101.7 |    19M |  31 |1198 |1272 |1318 | 211 |  5 |   2 |  83 | 2.046817e+03 | 2.047461e+03 |   0.03%|  99.96%
  6.7s|   300 |    21 | 26133 |  79.4 |    19M |  46 |1198 |1272 |1334 | 280 |  0 |   2 |  87 | 2.047361e+03 | 2.047461e+03 |   0.00%|  99.99%
  6.9s|   400 |    21 | 26298 |  59.9 |    19M |  60 |1198 |1272 |1334 | 299 |  1 |   2 |  87 | 2.047361e+03 | 2.047461e+03 |   0.00%|  99.99%

SCIP Status        : problem is solved [optimal solution found]
Solving Time (sec) : 6.99
Solving Nodes      : 473
Primal Bound       : +2.04746059293288e+03 (11 solutions)
Dual Bound         : +2.04746059293288e+03
Gap                : 0.00 %
primal_bound = 2047.4605929328827, dual_bound = 2047.4605929328827, gap = 0.0, time = 10.05
